proyfinal/src/viki/013/experimentInOfficeAgust.take6.output/6c13a138-f3ca-4fd0-99ed-53f97b158739.als.dat
{'cnf.clauses': '118081',
 'cnf.totvars': '69608',
 'conflict literals': '4',
 'conflicts': '4',
 'decisions': '1048',
 'memused.mb': '18.00',
 'outcome': 'UNSAT',
 'propagations': '20488',
 'restarts': '1',
 'solver.msecs': 35,
 'task.msecs': 84}
