proyfinal/src/viki/013/experimentInOfficeAgust.take6.output/6c13a138-f3ca-4fd0-99ed-53f97b158739.als.out
Reading from standard input... Use '--help' for help.
============================[ Problem Statistics ]=============================
|                                                                             |
|  Number of variables:         69608                                         |
|  Number of clauses:          118081                                         |
|  Parse time:                   0.03 s                                       |
|                                                                             |
============================[ Search Statistics ]==============================
| Conflicts |          ORIGINAL         |          LEARNT          | Progress |
|           |    Vars  Clauses Literals |    Limit  Clauses Lit/Cl |          |
===============================================================================
===============================================================================
restarts              : 1
conflicts             : 4              (114 /sec)
decisions             : 1048           (0.00 % random) (29865 /sec)
propagations          : 20488          (583853 /sec)
conflict literals     : 4              (0.00 % deleted)
Memory used           : 18.00 MB
CPU time              : 0.035091 s

UNSATISFIABLE
